language ESSENCE' 1.0
letting lastdx=102
letting cage be [
[7,3,11,0,0, 0,0, 0,0, 0,0],
[6,8,11,0,0, 0,0, 0,0, 0,0],
[12,2,11,0,0, 0,0, 0,0, 0,0],
[14,2,16,1,16,0,0, 0,0, 0,0],
[3,9,8,0,0, 0,0, 0,0, 0,0],
[7,10,12,0,0, 0,0, 0,0, 0,0],
[22,8,6,8,5,7,5,0,0, 0,0],
[43,9,3,9,2,8,2,7,2,0,0],
[10,12,9,0,0, 0,0, 0,0, 0,0],
[42,10,14,10,13,11,13,12,13,13,13],
[7,1,13,0,0, 0,0, 0,0, 0,0],
[39,6,1,7,1,8,1,9,1,10,1],
[3,5,11,0,0, 0,0, 0,0, 0,0],
[4,10,4,0,0, 0,0, 0,0, 0,0],
[28,11,2,11,1,12,1,0,0, 0,0],
[23,9,16,9,15,8,15,0,0, 0,0],
[11,10,5,10,6,0,0, 0,0, 0,0],
[10,14,2,0,0, 0,0, 0,0, 0,0],
[33,3,3,2,3,1,3,1,2,0,0],
[27,4,12,5,12,6,12,6,11,7,11],
[12,15,5,0,0, 0,0, 0,0, 0,0],
[21,14,3,14,4,14,5,0,0, 0,0],
[12,6,9,0,0, 0,0, 0,0, 0,0],
[32,11,8,10,8,10,7,0,0, 0,0],
[17,14,15,14,16,13,16,15,16,0,0],
[26,6,7,5,7,5,8,6,8,7,8],
[2,3,9,0,0, 0,0, 0,0, 0,0],
[12,16,4,0,0, 0,0, 0,0, 0,0],
[32,2,4,2,5,1,5,1,4,0,0],
[23,7,16,8,16,0,0, 0,0, 0,0],
[5,15,6,0,0, 0,0, 0,0, 0,0],
[29,2,13,2,14,2,15,0,0, 0,0],
[13,9,11,0,0, 0,0, 0,0, 0,0],
[38,16,15,16,16,15,15,15,14,0,0],
[26,3,4,3,5,3,6,0,0, 0,0],
[2,9,10,0,0, 0,0, 0,0, 0,0],
[15,3,13,0,0, 0,0, 0,0, 0,0],
[16,5,2,0,0, 0,0, 0,0, 0,0],
[16,4,4,4,5,0,0, 0,0, 0,0],
[37,5,3,4,3,4,2,4,1,5,1],
[12,5,13,0,0, 0,0, 0,0, 0,0],
[5,12,3,0,0, 0,0, 0,0, 0,0],
[15,16,10,16,11,15,11,0,0, 0,0],
[19,14,10,14,9,13,9,0,0, 0,0],
[1,8,13,0,0, 0,0, 0,0, 0,0],
[11,13,2,12,2,0,0, 0,0, 0,0],
[40,15,1,14,1,13,1,0,0, 0,0],
[5,11,7,0,0, 0,0, 0,0, 0,0],
[43,5,5,5,6,4,6,4,7,0,0],
[5,7,14,8,14,0,0, 0,0, 0,0],
[15,6,10,0,0, 0,0, 0,0, 0,0],
[3,16,2,16,1,0,0, 0,0, 0,0],
[29,13,7,14,7,0,0, 0,0, 0,0],
[16,11,3,10,3,10,2,0,0, 0,0],
[15,16,6,16,5,0,0, 0,0, 0,0],
[16,7,9,0,0, 0,0, 0,0, 0,0],
[35,4,11,4,10,5,10,0,0, 0,0],
[15,10,15,10,16,0,0, 0,0, 0,0],
[43,7,3,7,4,8,4,8,3,0,0],
[8,10,11,0,0, 0,0, 0,0, 0,0],
[45,7,10,8,10,8,9,8,8,8,7],
[7,16,14,0,0, 0,0, 0,0, 0,0],
[10,15,12,0,0, 0,0, 0,0, 0,0],
[47,10,9,9,9,10,10,11,10,11,9],
[6,6,16,0,0, 0,0, 0,0, 0,0],
[14,16,3,0,0, 0,0, 0,0, 0,0],
[67,13,14,14,14,14,13,14,12,13,12],
[14,2,8,1,8,0,0, 0,0, 0,0],
[7,15,4,0,0, 0,0, 0,0, 0,0],
[19,9,13,9,14,0,0, 0,0, 0,0],
[21,1,14,1,15,0,0, 0,0, 0,0],
[13,3,12,0,0, 0,0, 0,0, 0,0],
[9,7,13,0,0, 0,0, 0,0, 0,0],
[14,4,14,4,13,0,0, 0,0, 0,0],
[26,15,13,16,13,16,12,0,0, 0,0],
[1,2,12,0,0, 0,0, 0,0, 0,0],
[13,11,14,12,14,0,0, 0,0, 0,0],
[14,5,9,4,9,0,0, 0,0, 0,0],
[11,12,4,0,0, 0,0, 0,0, 0,0],
[38,5,16,4,16,3,16,3,15,3,14],
[28,8,12,7,12,9,12,0,0, 0,0],
[3,13,6,14,6,0,0, 0,0, 0,0],
[6,13,10,0,0, 0,0, 0,0, 0,0],
[17,6,15,7,15,0,0, 0,0, 0,0],
[18,1,1,2,1,0,0, 0,0, 0,0],
[6,1,6,0,0, 0,0, 0,0, 0,0],
[16,1,7,0,0, 0,0, 0,0, 0,0],
[35,1,9,2,9,2,10,3,10,0,0],
[5,1,10,0,0, 0,0, 0,0, 0,0],
[15,1,11,1,12,0,0, 0,0, 0,0],
[30,2,2,3,2,3,1,0,0, 0,0],
[13,2,6,0,0, 0,0, 0,0, 0,0],
[31,2,7,3,7,3,8,4,8,0,0],
[5,4,15,0,0, 0,0, 0,0, 0,0],
[36,5,4,6,4,6,5,6,6,0,0],
[15,6,2,6,3,0,0, 0,0, 0,0],
[23,7,6,7,7,0,0, 0,0, 0,0],
[44,9,4,9,5,9,6,9,7,0,0],
[44,11,11,12,11,12,10,13,11,14,11],
[18,11,12,12,12,0,0, 0,0, 0,0],
[22,13,3,13,4,13,5,0,0, 0,0],
[19,15,2,15,3,0,0, 0,0, 0,0],
[14,15,7,16,7,0,0, 0,0, 0,0]
]
